NAME          
ROWS
 N  OBJ
 L  c1
COLUMNS
    MARKER    'MARKER'                 'INTORG'
    x[1]      c1        781
    x[1]      OBJ       -782
    x[2]      c1        641
    x[2]      OBJ       -584
    x[3]      c1        345
    x[3]      OBJ       -318
    x[4]      c1        896
    x[4]      OBJ       -959
    x[5]      c1        627
    x[5]      OBJ       -608
    x[6]      c1        649
    x[6]      OBJ       -726
    x[7]      c1        56
    x[7]      OBJ       -78
    x[8]      c1        513
    x[8]      OBJ       -550
    x[9]      c1        822
    x[9]      OBJ       -839
    x[10]     c1        484
    x[10]     OBJ       -411
    x[11]     c1        436
    x[11]     OBJ       -357
    x[12]     c1        473
    x[12]     OBJ       -464
    x[13]     c1        75
    x[13]     OBJ       -54
    x[14]     c1        502
    x[14]     OBJ       -589
    x[15]     c1        240
    x[15]     OBJ       -303
    x[16]     c1        68
    x[16]     OBJ       -132
    x[17]     c1        546
    x[17]     OBJ       -448
    x[18]     c1        381
    x[18]     OBJ       -445
    x[19]     c1        155
    x[19]     OBJ       -112
    x[20]     c1        3
    x[20]     OBJ       -10
    x[21]     c1        335
    x[21]     OBJ       -360
    x[22]     c1        227
    x[22]     OBJ       -230
    x[23]     c1        588
    x[23]     OBJ       -613
    x[24]     c1        912
    x[24]     OBJ       -1000
    x[25]     c1        620
    x[25]     OBJ       -617
    x[26]     c1        310
    x[26]     OBJ       -399
    x[27]     c1        377
    x[27]     OBJ       -345
    x[28]     c1        196
    x[28]     OBJ       -143
    x[29]     c1        619
    x[29]     OBJ       -571
    x[30]     c1        1055
    x[30]     OBJ       -995
    x[31]     c1        478
    x[31]     OBJ       -435
    x[32]     c1        913
    x[32]     OBJ       -832
    x[33]     c1        940
    x[33]     OBJ       -995
    x[34]     c1        152
    x[34]     OBJ       -211
    x[35]     c1        26
    x[35]     OBJ       -57
    x[36]     c1        -26
    x[36]     OBJ       -5
    x[37]     c1        149
    x[37]     OBJ       -77
    x[38]     c1        689
    x[38]     OBJ       -698
    x[39]     c1        896
    x[39]     OBJ       -933
    x[40]     c1        930
    x[40]     OBJ       -963
    x[41]     c1        17
    x[41]     OBJ       -28
    x[42]     c1        115
    x[42]     OBJ       -188
    x[43]     c1        410
    x[43]     OBJ       -436
    x[44]     c1        260
    x[44]     OBJ       -164
    x[45]     c1        183
    x[45]     OBJ       -140
    x[46]     c1        528
    x[46]     OBJ       -591
    x[47]     c1        15
    x[47]     OBJ       -75
    x[48]     c1        127
    x[48]     OBJ       -169
    x[49]     c1        901
    x[49]     OBJ       -856
    x[50]     c1        345
    x[50]     OBJ       -422
RHS
    rhs       c1        10990
RANGES
BOUNDS
 LO bounds    x[1]      0
 PL bounds    x[1]
 LO bounds    x[2]      0
 PL bounds    x[2]
 LO bounds    x[3]      0
 PL bounds    x[3]
 LO bounds    x[4]      0
 PL bounds    x[4]
 LO bounds    x[5]      0
 PL bounds    x[5]
 LO bounds    x[6]      0
 PL bounds    x[6]
 LO bounds    x[7]      0
 PL bounds    x[7]
 LO bounds    x[8]      0
 PL bounds    x[8]
 LO bounds    x[9]      0
 PL bounds    x[9]
 LO bounds    x[10]     0
 PL bounds    x[10]
 LO bounds    x[11]     0
 PL bounds    x[11]
 LO bounds    x[12]     0
 PL bounds    x[12]
 LO bounds    x[13]     0
 PL bounds    x[13]
 LO bounds    x[14]     0
 PL bounds    x[14]
 LO bounds    x[15]     0
 PL bounds    x[15]
 LO bounds    x[16]     0
 PL bounds    x[16]
 LO bounds    x[17]     0
 PL bounds    x[17]
 LO bounds    x[18]     0
 PL bounds    x[18]
 LO bounds    x[19]     0
 PL bounds    x[19]
 LO bounds    x[20]     0
 PL bounds    x[20]
 LO bounds    x[21]     0
 PL bounds    x[21]
 LO bounds    x[22]     0
 PL bounds    x[22]
 LO bounds    x[23]     0
 PL bounds    x[23]
 LO bounds    x[24]     0
 PL bounds    x[24]
 LO bounds    x[25]     0
 PL bounds    x[25]
 LO bounds    x[26]     0
 PL bounds    x[26]
 LO bounds    x[27]     0
 PL bounds    x[27]
 LO bounds    x[28]     0
 PL bounds    x[28]
 LO bounds    x[29]     0
 PL bounds    x[29]
 LO bounds    x[30]     0
 PL bounds    x[30]
 LO bounds    x[31]     0
 PL bounds    x[31]
 LO bounds    x[32]     0
 PL bounds    x[32]
 LO bounds    x[33]     0
 PL bounds    x[33]
 LO bounds    x[34]     0
 PL bounds    x[34]
 LO bounds    x[35]     0
 PL bounds    x[35]
 LO bounds    x[36]     0
 PL bounds    x[36]
 LO bounds    x[37]     0
 PL bounds    x[37]
 LO bounds    x[38]     0
 PL bounds    x[38]
 LO bounds    x[39]     0
 PL bounds    x[39]
 LO bounds    x[40]     0
 PL bounds    x[40]
 LO bounds    x[41]     0
 PL bounds    x[41]
 LO bounds    x[42]     0
 PL bounds    x[42]
 LO bounds    x[43]     0
 PL bounds    x[43]
 LO bounds    x[44]     0
 PL bounds    x[44]
 LO bounds    x[45]     0
 PL bounds    x[45]
 LO bounds    x[46]     0
 PL bounds    x[46]
 LO bounds    x[47]     0
 PL bounds    x[47]
 LO bounds    x[48]     0
 PL bounds    x[48]
 LO bounds    x[49]     0
 PL bounds    x[49]
 LO bounds    x[50]     0
 PL bounds    x[50]
ENDATA
